100 155620
3 17 36 45 82 7 23 35 44 76 50 92 38 48 53 49 12 89 93 29 21 41 66 72 2 26 70 85 30 24 68 28 86 94 99 67 61 16 9 80 51 20 46 19 14 40 64 47 73 10 8 69 100 98 4 56 52 62 96 97 15 57 54 22 34 32 55 5 18 27 37 91 31 81 74 63 95 75 88 42 59 87 77 43 25 83 11 39 84 65 33 6 90 1 79 13 60 71 78 58 
